533,383
745,207
830,112
672,434
681,466
644,520
641,486
1093,705
1062,787
826,511
804,575
624,424
695,318
598,150
512,283
361,569
427,660
607,634
773,691
789,619
570,748
620,791
718,643
1155,331
1036,350
681,76
787,512
778,336
597,490
487,547
470,697
366,635
382,818
532,700
563,424
561,406
342,160
441,284
